
Gurobi 7.5.2 (linux64) logging started Sat Jul  7 17:27:42 2018

Changed value of parameter LogFile to result/ilp/simNo_8-n_100-m_40-s_4-minVAF_0.05-cov_10000-k_1-fn_0.25-fp_0.0001-na_0.15.ILP.gurobiSolverLog
   Prev: gurobi.log  Default: 
Changed value of parameter TimeLimit to 86400.0
   Prev: 1e+100  Min: 0.0  Max: 1e+100  Default: 1e+100
Optimize a model with 639293 rows, 10765 columns and 1940420 nonzeros
Variable types: 0 continuous, 10765 integer (10765 binary)
Coefficient statistics:
  Matrix range     [1e-04, 4e+00]
  Objective range  [1e+00, 2e+01]
  Bounds range     [1e+00, 1e+00]
  RHS range        [2e-01, 2e+00]
Found heuristic solution: objective -12484.79222
Presolve removed 133305 rows and 1037 columns (presolve time = 5s) ...
Presolve removed 134805 rows and 1037 columns (presolve time = 15s) ...
Presolve removed 194005 rows and 1629 columns (presolve time = 22s) ...
Presolve removed 194005 rows and 1629 columns
Presolve time: 23.11s
Presolved: 445288 rows, 9136 columns, 1339674 nonzeros
Variable types: 0 continuous, 9136 integer (9136 binary)
Presolved: 9136 rows, 454424 columns, 1348810 nonzeros

Presolve removed 9136 rows and 454424 columns

Root simplex log...

Iteration    Objective       Primal Inf.    Dual Inf.      Time
       0    2.1304621e+01   0.000000e+00   6.280400e+04     28s
   12966   -2.0643300e+02   0.000000e+00   1.570398e+06     30s
   29513   -2.9509187e+02   0.000000e+00   6.204432e+04     35s
   43961   -3.3789378e+02   0.000000e+00   2.266023e+04     40s
   45876   -3.3978491e+02   0.000000e+00   0.000000e+00     42s
   45876   -3.3978491e+02   0.000000e+00   0.000000e+00     44s

Root relaxation: objective -3.397849e+02, 45876 iterations, 18.47 seconds
Total elapsed time = 95.83s
Total elapsed time = 133.65s

    Nodes    |    Current Node    |     Objective Bounds      |     Work
 Expl Unexpl |  Obj  Depth IntInf | Incumbent    BestBd   Gap | It/Node Time

     0     0 -339.78491    0 1379 -12484.792 -339.78491  97.3%     -  152s
H    0     0                    -462.1097526 -339.78491  26.5%     -  157s
H    0     0                    -435.5603245 -339.78491  22.0%     -  159s
H    0     0                    -415.8714378 -339.78491  18.3%     -  163s
     0     0 -342.39079    0 1376 -415.87144 -342.39079  17.7%     -  181s
H    0     0                    -411.2387585 -342.39079  16.7%     -  207s
     0     0 -342.39079    0 1380 -411.23876 -342.39079  16.7%     -  209s
     0     0 -345.19671    0 1361 -411.23876 -345.19671  16.1%     -  814s
H    0     0                    -410.0805887 -345.19671  15.8%     -  830s
     0     0 -345.49069    0 1487 -410.08059 -345.49069  15.8%     -  867s
     0     0 -345.49069    0 1487 -410.08059 -345.49069  15.8%     -  872s
     0     0 -346.26953    0 1397 -410.08059 -346.26953  15.6%     -  963s
     0     0 -346.48916    0 1367 -410.08059 -346.48916  15.5%     -  999s
     0     0 -346.48916    0 1367 -410.08059 -346.48916  15.5%     - 1004s
     0     0 -347.74231    0 1468 -410.08059 -347.74231  15.2%     - 1758s
     0     0 -347.88985    0 1349 -410.08059 -347.88985  15.2%     - 1779s
     0     0 -347.88985    0 1352 -410.08059 -347.88985  15.2%     - 1781s
     0     0 -349.40989    0 1528 -410.08059 -349.40989  14.8%     - 2482s
H    0     0                    -397.2267093 -349.40989  12.0%     - 2500s
     0     0 -349.43648    0 1526 -397.22671 -349.43648  12.0%     - 2509s
     0     0 -349.53962    0 1521 -397.22671 -349.53962  12.0%     - 2539s
     0     0 -349.53968    0 1522 -397.22671 -349.53968  12.0%     - 2548s
     0     0 -351.41133    0 1485 -397.22671 -351.41133  11.5%     - 2900s
H    0     0                    -392.5940301 -351.41133  10.5%     - 2925s
     0     0 -351.48568    0 1402 -392.59403 -351.48568  10.5%     - 2940s
     0     0 -351.49125    0 1518 -392.59403 -351.49125  10.5%     - 2961s
     0     0 -351.49125    0 1517 -392.59403 -351.49125  10.5%     - 2966s
     0     0 -352.28094    0 1451 -392.59403 -352.28094  10.3%     - 3272s
     0     0 -352.69533    0 1388 -392.59403 -352.69533  10.2%     - 3711s
     0     0 -352.76332    0 1387 -392.59403 -352.76332  10.1%     - 3736s
     0     0 -352.76332    0 1390 -392.59403 -352.76332  10.1%     - 3743s
     0     0 -353.97249    0 1321 -392.59403 -353.97249  9.84%     - 4437s
H    0     0                    -391.4358603 -353.97249  9.57%     - 4462s
     0     0 -354.00144    0 1318 -391.43586 -354.00144  9.56%     - 4496s
     0     0 -354.04713    0 1406 -391.43586 -354.04713  9.55%     - 4549s
     0     0 -354.07090    0 1442 -391.43586 -354.07090  9.55%     - 4567s
     0     0 -354.11886    0 1448 -391.43586 -354.11886  9.53%     - 4639s
     0     0 -354.11886    0 1448 -391.43586 -354.11886  9.53%     - 4643s
     0     0 -354.82669    0 1501 -391.43586 -354.82669  9.35%     - 5828s
     0     0 -354.93906    0 1472 -391.43586 -354.93906  9.32%     - 6002s
     0     0 -354.93906    0 1477 -391.43586 -354.93906  9.32%     - 6009s
     0     0 -355.71325    0 1534 -391.43586 -355.71325  9.13%     - 8963s
     0     0 -355.72773    0 1524 -391.43586 -355.72773  9.12%     - 9005s
     0     0 -355.72773    0 1527 -391.43586 -355.72773  9.12%     - 9009s
     0     0 -356.66070    0 1549 -391.43586 -356.66070  8.88%     - 13825s
     0     0 -356.87898    0 1540 -391.43586 -356.87898  8.83%     - 13955s
     0     0 -356.87963    0 1542 -391.43586 -356.87963  8.83%     - 13964s
     0     0 -357.60976    0 1486 -391.43586 -357.60976  8.64%     - 16745s
     0     0 -357.62111    0 1534 -391.43586 -357.62111  8.64%     - 16776s
     0     0 -357.78720    0 1540 -391.43586 -357.78720  8.60%     - 16809s
     0     0 -357.81645    0 1543 -391.43586 -357.81645  8.59%     - 16820s
     0     0 -357.83441    0 1542 -391.43586 -357.83441  8.58%     - 16830s
     0     0 -357.83441    0 1541 -391.43586 -357.83441  8.58%     - 16834s
     0     0 -358.64037    0 1530 -391.43586 -358.64037  8.38%     - 17537s
     0     0 -358.78313    0 1545 -391.43586 -358.78313  8.34%     - 17658s
     0     0 -358.78313    0 1546 -391.43586 -358.78313  8.34%     - 17663s
     0     0 -359.91228    0 1577 -391.43586 -359.91228  8.05%     - 22808s
     0     0 -360.46147    0 1572 -391.43586 -360.46147  7.91%     - 23313s
     0     0 -360.67472    0 1576 -391.43586 -360.67472  7.86%     - 23592s
     0     0 -360.74962    0 1562 -391.43586 -360.74962  7.84%     - 23691s
     0     0 -360.77108    0 1572 -391.43586 -360.77108  7.83%     - 23705s
     0     0 -360.77453    0 1575 -391.43586 -360.77453  7.83%     - 23723s
     0     0 -360.77453    0 1575 -391.43586 -360.77453  7.83%     - 23727s
     0     0 -361.17297    0 1540 -391.43586 -361.17297  7.73%     - 23949s
     0     0 -361.42943    0 1564 -391.43586 -361.42943  7.67%     - 24245s
     0     0 -361.46441    0 1562 -391.43586 -361.46441  7.66%     - 24263s
     0     0 -361.47637    0 1572 -391.43586 -361.47637  7.65%     - 24289s
     0     0 -361.49377    0 1573 -391.43586 -361.49377  7.65%     - 24310s
     0     0 -361.49459    0 1574 -391.43586 -361.49459  7.65%     - 24323s
     0     0 -362.45413    0 1582 -391.43586 -362.45413  7.40%     - 25752s
     0     0 -362.59746    0 1577 -391.43586 -362.59746  7.37%     - 26016s
     0     0 -362.60422    0 1573 -391.43586 -362.60422  7.37%     - 26032s
     0     0 -362.61255    0 1580 -391.43586 -362.61255  7.36%     - 26044s
     0     0 -362.61255    0 1579 -391.43586 -362.61255  7.36%     - 26048s
     0     0 -362.99426    0 1574 -391.43586 -362.99426  7.27%     - 26214s
     0     0 -363.07654    0 1471 -391.43586 -363.07654  7.24%     - 26286s
     0     0 -363.11814    0 1578 -391.43586 -363.11814  7.23%     - 26372s
     0     0 -363.13001    0 1578 -391.43586 -363.13001  7.23%     - 26409s
     0     0 -363.13001    0 1579 -391.43586 -363.13001  7.23%     - 26413s
     0     0 -364.76577    0 1566 -391.43586 -364.76577  6.81%     - 28606s
     0     0 -364.94564    0 1568 -391.43586 -364.94564  6.77%     - 29065s
     0     0 -364.94634    0 1577 -391.43586 -364.94634  6.77%     - 29084s
     0     0 -365.18214    0 1566 -391.43586 -365.18214  6.71%     - 30042s
     0     0 -365.27788    0 1578 -391.43586 -365.27788  6.68%     - 30257s
     0     0 -365.32603    0 1535 -391.43586 -365.32603  6.67%     - 30318s
     0     0 -365.34144    0 1572 -391.43586 -365.34144  6.67%     - 30370s
     0     0 -365.34678    0 1573 -391.43586 -365.34678  6.66%     - 30394s
     0     0 -365.34678    0 1573 -391.43586 -365.34678  6.66%     - 30398s
     0     0 -365.92293    0 1451 -391.43586 -365.92293  6.52%     - 31025s
     0     0 -366.07804    0 1567 -391.43586 -366.07804  6.48%     - 31227s
     0     0 -366.16306    0 1567 -391.43586 -366.16306  6.46%     - 31290s
     0     0 -366.17964    0 1569 -391.43586 -366.17964  6.45%     - 31342s
     0     0 -366.18501    0 1570 -391.43586 -366.18501  6.45%     - 31358s
     0     0 -366.18715    0 1570 -391.43586 -366.18715  6.45%     - 31377s
     0     0 -366.74045    0 1570 -391.43586 -366.74045  6.31%     - 31764s
     0     0 -366.88403    0 1575 -391.43586 -366.88403  6.27%     - 31925s
     0     0 -366.92537    0 1564 -391.43586 -366.92537  6.26%     - 31962s
     0     0 -366.92872    0 1568 -391.43586 -366.92872  6.26%     - 32024s
     0     0 -366.94097    0 1570 -391.43586 -366.94097  6.26%     - 32044s
     0     0 -366.94097    0 1569 -391.43586 -366.94097  6.26%     - 32048s
     0     0 -367.62620    0 1545 -391.43586 -367.62620  6.08%     - 33454s
     0     0 -367.69112    0 1570 -391.43586 -367.69112  6.07%     - 33549s
     0     0 -367.70845    0 1568 -391.43586 -367.70845  6.06%     - 33579s
     0     0 -367.74415    0 1568 -391.43586 -367.74415  6.05%     - 33603s
     0     0 -367.74484    0 1569 -391.43586 -367.74484  6.05%     - 33615s
     0     0 -368.07265    0 1557 -391.43586 -368.07265  5.97%     - 34034s
     0     0 -368.16338    0 1544 -391.43586 -368.16338  5.95%     - 34203s
     0     0 -368.21821    0 1538 -391.43586 -368.21821  5.93%     - 34357s
     0     0 -368.25384    0 1521 -391.43586 -368.25384  5.92%     - 34395s
     0     0 -368.26512    0 1559 -391.43586 -368.26512  5.92%     - 34462s
     0     0 -368.26771    0 1559 -391.43586 -368.26771  5.92%     - 34483s
     0     0 -368.59381    0 1486 -391.43586 -368.59381  5.84%     - 43466s
     0     0 -368.68583    0 1571 -391.43586 -368.68583  5.81%     - 43538s
     0     0 -368.75980    0 1589 -391.43586 -368.75980  5.79%     - 43689s
     0     0 -368.82252    0 1586 -391.43586 -368.82252  5.78%     - 43782s
     0     0 -368.82252    0 1592 -391.43586 -368.82252  5.78%     - 43785s
     0     0 -369.21193    0 1568 -391.43586 -369.21193  5.68%     - 44360s
     0     0 -369.49706    0 1598 -391.43586 -369.49706  5.60%     - 44770s
     0     0 -369.55492    0 1597 -391.43586 -369.55492  5.59%     - 44831s
     0     0 -369.57451    0 1598 -391.43586 -369.57451  5.58%     - 44883s
     0     0 -369.57483    0 1567 -391.43586 -369.57483  5.58%     - 44896s
     0     0 -370.59730    0 1585 -391.43586 -370.59730  5.32%     - 49341s
     0     0 -370.78591    0 1563 -391.43586 -370.78591  5.28%     - 49411s
     0     0 -370.82927    0 1556 -391.43586 -370.82927  5.26%     - 49467s
     0     0 -370.83335    0 1562 -391.43586 -370.83335  5.26%     - 49481s
     0     0 -370.83335    0 1562 -391.43586 -370.83335  5.26%     - 49485s
     0     0 -371.04381    0 1571 -391.43586 -371.04381  5.21%     - 50160s
     0     0 -371.27814    0 1486 -391.43586 -371.27814  5.15%     - 51205s
     0     0 -371.31009    0 1496 -391.43586 -371.31009  5.14%     - 51239s
     0     0 -371.31975    0 1499 -391.43586 -371.31975  5.14%     - 51274s
     0     0 -371.31975    0 1500 -391.43586 -371.31975  5.14%     - 51283s
     0     0 -371.81853    0 1572 -391.43586 -371.81853  5.01%     - 52631s
     0     0 -372.05519    0 1458 -391.43586 -372.05519  4.95%     - 52888s
     0     0 -372.07805    0 1463 -391.43586 -372.07805  4.95%     - 52960s
     0     0 -372.09155    0 1467 -391.43586 -372.09155  4.94%     - 52973s
     0     0 -372.09429    0 1465 -391.43586 -372.09429  4.94%     - 52996s
     0     0 -372.57054    0 1484 -391.43586 -372.57054  4.82%     - 55354s
     0     0 -372.65036    0 1466 -391.43586 -372.65036  4.80%     - 55434s
     0     0 -372.67075    0 1475 -391.43586 -372.67075  4.79%     - 55447s
     0     0 -372.69335    0 1475 -391.43586 -372.69335  4.79%     - 55465s
     0     0 -372.69433    0 1477 -391.43586 -372.69433  4.79%     - 55470s
     0     0 -373.00639    0 1463 -391.43586 -373.00639  4.71%     - 56514s
     0     0 -373.00911    0 1471 -391.43586 -373.00911  4.71%     - 56543s
     0     0 -373.03641    0 1470 -391.43586 -373.03641  4.70%     - 56590s
     0     0 -373.05465    0 1469 -391.43586 -373.05465  4.70%     - 56620s
     0     0 -373.08222    0 1474 -391.43586 -373.08222  4.69%     - 56643s
     0     0 -373.08682    0 1477 -391.43586 -373.08682  4.69%     - 56660s
     0     0 -373.08682    0 1477 -391.43586 -373.08682  4.69%     - 56663s
     0     0 -373.54678    0 1427 -391.43586 -373.54678  4.57%     - 58068s
     0     0 -373.57808    0 1447 -391.43586 -373.57808  4.56%     - 58139s
     0     0 -373.58453    0 1443 -391.43586 -373.58453  4.56%     - 58156s
     0     0 -373.58453    0 1445 -391.43586 -373.58453  4.56%     - 58159s
     0     0 -374.10383    0 1434 -391.43586 -374.10383  4.43%     - 58381s
     0     0 -374.22336    0 1443 -391.43586 -374.22336  4.40%     - 58512s
     0     0 -374.30129    0 1451 -391.43586 -374.30129  4.38%     - 58547s
     0     0 -374.30194    0 1456 -391.43586 -374.30194  4.38%     - 58560s
     0     0 -374.38345    0 1455 -391.43586 -374.38345  4.36%     - 58675s
     0     0 -374.52283    0 1444 -391.43586 -374.52283  4.32%     - 58862s
     0     0 -374.57044    0 1447 -391.43586 -374.57044  4.31%     - 58913s
     0     0 -374.57742    0 1455 -391.43586 -374.57742  4.31%     - 58934s
     0     0 -374.57742    0 1461 -391.43586 -374.57742  4.31%     - 58939s
     0     0 -374.98493    0 1439 -391.43586 -374.98493  4.20%     - 59613s
     0     0 -375.19083    0 1450 -391.43586 -375.19083  4.15%     - 60881s
     0     0 -375.21959    0 1455 -391.43586 -375.21959  4.14%     - 60954s
     0     0 -375.22300    0 1443 -391.43586 -375.22300  4.14%     - 60969s
     0     0 -375.36323    0 1448 -391.43586 -375.36323  4.11%     - 61087s
     0     0 -375.42048    0 1449 -391.43586 -375.42048  4.09%     - 61274s
     0     0 -375.42076    0 1452 -391.43586 -375.42076  4.09%     - 61287s
     0     0 -375.42076    0 1452 -391.43586 -375.42076  4.09%     - 61300s
     0     0 -375.42076    0 1457 -391.43586 -375.42076  4.09%     - 61324s
     0     0 -375.42076    0 1457 -391.43586 -375.42076  4.09%     - 61337s
     0     0 -375.42076    0 1453 -391.43586 -375.42076  4.09%     - 61357s
     0     0 -375.44101    0 1431 -391.43586 -375.44101  4.09%     - 62146s
     0     0 -375.44101    0 1431 -391.43586 -375.44101  4.09%     - 62229s
H    0     0                    -390.2776905 -375.44101  3.80%     - 62518s
     0     2 -375.44101    0 1431 -390.27769 -375.44101  3.80%     - 62623s
     1     3 -376.77139    1  925 -390.27769 -375.44304  3.80%  8611 62696s
     2     4 -378.26168    2  891 -390.27769 -375.44304  3.80%  7278 62760s
     3     5 -378.15310    2  815 -390.27769 -375.44304  3.80%  6508 62802s
     4     6 -379.69331    3  885 -390.27769 -375.44304  3.80%  5632 62822s
     5     7 -381.20536    4  868 -390.27769 -375.44304  3.80%  4654 62831s
     6     8 -381.88096    4  794 -390.27769 -375.44304  3.80%  4838 62903s
     7     9 -382.06831    5  862 -390.27769 -375.44304  3.80%  4269 62908s
     8    10 -385.35547    5  791 -390.27769 -375.44304  3.80%  4289 62971s
     9    11 -383.03913    6  816 -390.27769 -375.44304  3.80%  3849 63003s
    11    13 -383.90776    8  628 -390.27769 -375.44304  3.80%  3192 63010s
    12    14 -386.80318    8  574 -390.27769 -375.44304  3.80%  3029 63018s
    13    15 -384.32139    9  707 -390.27769 -375.44304  3.80%  2817 63020s
    15    17 -390.11224   10  477 -390.27769 -375.44304  3.80%  2491 63027s
    18    16 -386.05864   11  643 -390.27769 -375.44304  3.80%  2085 63045s
    20    18 -386.92727   12  631 -390.27769 -375.44304  3.80%  1912 63050s
    23    21 -387.79590   14  555 -390.27769 -375.44304  3.80%  1673 63055s
    24    22 -388.37498   15  537 -390.27769 -375.44304  3.80%  1611 63067s
    27    23 -387.96135   16  448 -390.27769 -375.44304  3.80%  1447 63079s
    28    24 -388.54044   17  407 -390.27769 -375.44304  3.80%  1396 63080s
    32    26 -389.69861   20  357 -390.27769 -375.44304  3.80%  1232 63092s
    36    24 -383.74624    1 1295 -390.27769 -378.15310  3.11%  2085 63643s
    37    25 -384.47217    2  699 -390.27769 -378.15310  3.11%  2049 63653s
    38    26 -385.96246    3  706 -390.27769 -378.15310  3.11%  2019 63660s
    40    28 -388.71312    4  577 -390.27769 -378.15310  3.11%  2019 63707s
    41    29 -387.16889    5  674 -390.27769 -378.15310  3.11%  1978 63710s
    42    30 -390.16083    5  552 -390.27769 -378.15310  3.11%  2034 63738s
    43    31 -388.13403    6  566 -390.27769 -378.15310  3.11%  2031 63748s
    44    30     cutoff    6      -390.27769 -378.15310  3.11%  2090 63782s
    46    28     cutoff    7      -390.27769 -378.15310  3.11%  2018 63786s
    49    27 -380.08338    3  724 -390.27769 -378.15310  3.11%  1994 63815s
    51    29 -383.36486    4  425 -390.27769 -378.15310  3.11%  2021 63862s
    52    30 -383.81124    5  414 -390.27769 -378.15310  3.11%  1990 63867s
    53    29     cutoff    5      -390.27769 -378.15310  3.11%  2034 63888s
    54    30 -385.21070    6  408 -390.27769 -378.15310  3.11%  2023 63918s
    55    31 -385.78978    6  381 -390.27769 -378.15310  3.11%  2017 63929s
    56    32 -385.64501    7  396 -390.27769 -378.15310  3.11%  1988 63946s
    57    31     cutoff    7      -390.27769 -378.15310  3.11%  1980 63953s
    58    32 -388.90236    8  373 -390.27769 -378.15310  3.11%  1976 63962s
    61    31 -388.15438    8  289 -390.27769 -378.15310  3.11%  1902 63969s
    62    30     cutoff    9      -390.27769 -378.15310  3.11%  1872 63970s
    64    30 -378.15310    3  863 -390.27769 -378.15310  3.11%  1826 64206s
    65    31 -379.79039    4  917 -390.27769 -378.15310  3.11%  2030 64469s
    66    32 -385.61744    5  754 -390.27769 -378.15310  3.11%  2978 66139s
    67    33 -385.61744    6  741 -390.27769 -378.15310  3.11%  2934 66141s
    68    34 -386.19652    7  731 -390.27769 -378.15310  3.11%  2898 66151s
    69    35 -389.09195    8  733 -390.27769 -378.15310  3.11%  2887 66178s
    70    34     cutoff    9      -390.27769 -378.15310  3.11%  2854 66185s
    71    33     cutoff    9      -390.27769 -378.15310  3.11%  4912 70823s
    72    34 -388.51286    8  483 -390.27769 -378.15310  3.11%  5263 71553s
    73    33     cutoff    9      -390.27769 -378.15310  3.11%  5540 72202s
    74    34 -388.65625    9  488 -390.27769 -378.15310  3.11%  5499 72240s
    76    36 -389.11952   11  465 -390.27769 -378.15310  3.11%  5536 72526s
    77    37 -390.04606   12  459 -390.27769 -378.15310  3.11%  5474 72537s
    78    36     cutoff   13      -390.27769 -378.15310  3.11%  5433 72563s
    79    35     cutoff   11      -390.27769 -378.15310  3.11%  5902 73530s
    80    34     cutoff   13      -390.27769 -378.15310  3.11%  6230 74218s
    81    33     cutoff   12      -390.27769 -378.15310  3.11%  6365 74615s
    82    32     cutoff    4      -390.27769 -378.28985  3.07% 10776 86028s
    83    33 -382.63928    3  873 -390.27769 -379.80587  2.68% 11171 86356s
    84    34 -383.71473    4  870 -390.27769 -379.80587  2.68% 11061 86366s

Cutting planes:
  Gomory: 1
  Zero half: 568

Explored 85 nodes (2929657 simplex iterations) in 86400.19 seconds
Thread count was 1 (of 80 available processors)

Solution count 10: -390.278 -391.436 -392.594 ... -12484.8

Time limit reached
Best objective -3.902776904881e+02, best bound -3.798058679069e+02, gap 2.6832%
